c a=1 b=2 c=3 d=4 e=5 f=6 g=7 h=8 i=9 j=10 z=11
p cnf 11 28
1 2 -4 0
1 -2 4 0
-1 2 4 0
-1 -2 -4 0
2 3 -5 0
-2 5 0
-3 5 0
-4 -5 6 0
4 -6 0
5 -6 0
-1 2 7 0
1 -7 0
-2 -7 0
-3 -7 9 0
3 -9 0
7 -9 0
1 -2 8 0
-1 -8 0
2 -8 0
9 8 -10 0
9 -8 10 0
-9 8 10 0
-9 -8 -10 0
6 10 -11 0
6 -10 11 0
-6 10 11 0
-6 -10 -11 0
11 0
